
Gurobi 11.0.0 (win64, C++) logging started Tue Jul 29 13:39:54 2025

Set parameter TokenServer to value "141.76.38.119"
### START HEURISTIC APPROACH APPROACH ###
ProblemVariant: 1
### START PREPROCESSING ###
## Start start solution procedure ##
Start solution with 7 Vehicles and total costs 811.828 in 10.0991 s.
### END PREPROCESSING ###
Route 0 0-3-22-0 : weight util 0.050000 | volume util 0.334356 | infeasible with packing heuristic | feasible with CP model
Route 1 0-10-7-13-16-15-0 : weight util 0.244444 | volume util 0.620644 | infeasible with packing heuristic | feasible with CP model
Route 2 0-19-18-0 : weight util 0.122222 | volume util 0.401422 | infeasible with packing heuristic | feasible with CP model
Route 3 0-28-26-6-4-5-2-0 : weight util 0.888889 | volume util 0.710711 | infeasible with packing heuristic | feasible with CP model
Route 4 0-21-14-8-9-17-0 : weight util 0.555556 | volume util 0.535667 | infeasible with packing heuristic | feasible with CP model
Route 5 0-20-1-24-25-27-29-0 : weight util 0.666667 | volume util 0.683022 | infeasible with packing heuristic | feasible with CP model
Route 6 0-23-12-11-0 : weight util 0.305556 | volume util 0.590267 | infeasible with packing heuristic | feasible with CP model
